 &control
    calculation='scf'
    prefix='si_big'
    pseudo_dir='./pseudo/'
    outdir='./scratch_big/'
    tstress=.false.
    tprnfor=.false.
    disk_io='none'
 /
 &system
    ibrav=0, nat=54, ntyp=1,
    celldm(1)=10.26,
    ecutwfc=45.0,
 /
 &electrons
    mixing_beta=0.7
    conv_thr=1.0d-7
 /
CELL_PARAMETERS alat
   -1.50000000   0.00000000   1.50000000
    0.00000000   1.50000000   1.50000000
   -1.50000000   1.50000000   0.00000000
ATOMIC_SPECIES
 Si 28.0855 Si.pz-vbc.UPF
ATOMIC_POSITIONS alat
 Si   0.00000000   0.00000000   0.00000000
 Si   0.25000000   0.25000000   0.25000000
 Si  -0.50000000   0.50000000   0.00000000
 Si  -0.25000000   0.75000000   0.25000000
 Si  -1.00000000   1.00000000   0.00000000
 Si  -0.75000000   1.25000000   0.25000000
 Si   0.00000000   0.50000000   0.50000000
 Si   0.25000000   0.75000000   0.75000000
 Si  -0.50000000   1.00000000   0.50000000
 Si  -0.25000000   1.25000000   0.75000000
 Si  -1.00000000   1.50000000   0.50000000
 Si  -0.75000000   1.75000000   0.75000000
 Si   0.00000000   1.00000000   1.00000000
 Si   0.25000000   1.25000000   1.25000000
 Si  -0.50000000   1.50000000   1.00000000
 Si  -0.25000000   1.75000000   1.25000000
 Si  -1.00000000   2.00000000   1.00000000
 Si  -0.75000000   2.25000000   1.25000000
 Si  -0.50000000   0.00000000   0.50000000
 Si  -0.25000000   0.25000000   0.75000000
 Si  -1.00000000   0.50000000   0.50000000
 Si  -0.75000000   0.75000000   0.75000000
 Si  -1.50000000   1.00000000   0.50000000
 Si  -1.25000000   1.25000000   0.75000000
 Si  -0.50000000   0.50000000   1.00000000
 Si  -0.25000000   0.75000000   1.25000000
 Si  -1.00000000   1.00000000   1.00000000
 Si  -0.75000000   1.25000000   1.25000000
 Si  -1.50000000   1.50000000   1.00000000
 Si  -1.25000000   1.75000000   1.25000000
 Si  -0.50000000   1.00000000   1.50000000
 Si  -0.25000000   1.25000000   1.75000000
 Si  -1.00000000   1.50000000   1.50000000
 Si  -0.75000000   1.75000000   1.75000000
 Si  -1.50000000   2.00000000   1.50000000
 Si  -1.25000000   2.25000000   1.75000000
 Si  -1.00000000   0.00000000   1.00000000
 Si  -0.75000000   0.25000000   1.25000000
 Si  -1.50000000   0.50000000   1.00000000
 Si  -1.25000000   0.75000000   1.25000000
 Si  -2.00000000   1.00000000   1.00000000
 Si  -1.75000000   1.25000000   1.25000000
 Si  -1.00000000   0.50000000   1.50000000
 Si  -0.75000000   0.75000000   1.75000000
 Si  -1.50000000   1.00000000   1.50000000
 Si  -1.25000000   1.25000000   1.75000000
 Si  -2.00000000   1.50000000   1.50000000
 Si  -1.75000000   1.75000000   1.75000000
 Si  -1.00000000   1.00000000   2.00000000
 Si  -0.75000000   1.25000000   2.25000000
 Si  -1.50000000   1.50000000   2.00000000
 Si  -1.25000000   1.75000000   2.25000000
 Si  -2.00000000   2.00000000   2.00000000
 Si  -1.75000000   2.25000000   2.25000000
K_POINTS automatic
 2 2 2 1 1 1
